problems/csplib-prob036/FixedLengthErrorCorrectingCodes-models/compact/O2/lingeling/model-lee3-solution000001.eprime-solution
language ESSENCE' 1.0

letting c_ExplicitR9_Function1D be
        [[3, 1, 2, 1, 3, 3; int(1..6)], [3, 4, 2, 2, 3, 4; int(1..6)], [3, 4, 2, 4, 3, 2; int(1..6)],
         [3, 4, 4, 4, 1, 3; int(1..6)], [4, 4, 4, 1, 2, 2; int(1..6)], [4, 4, 4, 3, 3, 3; int(1..6)]; int(1..6)]
