problems/csplib-prob036/FixedLengthErrorCorrectingCodes-models/noch/O2/lingeling/model-lee3-solution000001.solution
language Essence 1.3

letting c be
        {function(1 --> c, 2 --> a, 3 --> b, 4 --> a, 5 --> c, 6 --> c),
         function(1 --> c, 2 --> d, 3 --> b, 4 --> b, 5 --> c, 6 --> d),
         function(1 --> c, 2 --> d, 3 --> b, 4 --> d, 5 --> c, 6 --> b),
         function(1 --> c, 2 --> d, 3 --> d, 4 --> d, 5 --> a, 6 --> c),
         function(1 --> d, 2 --> d, 3 --> d, 4 --> a, 5 --> b, 6 --> b),
         function(1 --> d, 2 --> d, 3 --> d, 4 --> c, 5 --> c, 6 --> c)}
